p cnf 21 8
a 1 2 0
e 3 4 5 0
a 6 0
e 7 8 0
a 9 0
e 10 11 0
a 12 13 0
e 14 15 0
a 16 17 18 0
e 19 0
a 20 0
e 21 0
-17 -8 9 0
9 -13 -12 -7 0
4 -2 -3 10 0
7 16 0
10 8 7 -5 0
-3 -21 5 10 19 0
1 4 17 19 0
-16 -5 14 0
